/*********************************************
 * OPL 12.6.0.0 Data
 * Author: Adrian Rodriguez Bazaga, Pau Rodriguez Esmerats
 * Creation Date: 06/12/2017 at 23:03:04
 *********************************************/

nNurses=227;
maxConsec=2;
maxPresence=7;
maxHours=5;
minHours=1;
hours=24;
demand= [39 36 52 48 36 52 48 36 30 11 3 3 6 7 10 7 9 5 7 4 46 72 30 65  ];
